c FILE /home/rafael/Documents/HappySet/MIHS/inputs/happygen/output/graph_scale_free_k3_p0.2_v100_20241127_083809.txt
c SOURCE This is a scale-free graph formed for the happy graph colouring problem.
c DESCRIPTION It was generated using the problem generator of Rhyd Lewis
c
c GRAPH STATS
c Seed                             = -201498721
c Number of Nodes                  = 100
c Number of colours k              = 3
c Number of pre-assignments        = 20
c Number of links per new node     = 5
c Density                          = 0.0979798
c 
c The degrees of nodes 1 to 100, respectively, are as follows 
c [42, 35, 31, 31, 30, 28, 27, 26, 25, 18, 17, 15, 15, 15, 14, 14, 14, 14, 14, 13, 13, 12, 12, 12, 11, 11, 
c  11, 11, 10, 10, 10, 9, 9, 9, 8, 8, 8, 8, 8, 8, 7, 7, 7, 7, 7, 7, 7, 7, 6, 6, 6, 
c  6, 6, 6, 6, 6, 6, 6, 6, 6, 6, 6, 6, 6, 6, 6, 5, 5, 5, 5, 5, 5, 5, 5, 5, 5, 
c  5, 5, 5, 5, 5, 5, 5, 5, 5, 5, 5, 5, 5, 5, 5, 5, 5, 5, 5, 5, 5, 5, 5, 5] 
c  
p edge 100 485 3
e 1 2
e 1 3
e 1 4
e 1 5
e 1 6
e 1 8
e 1 9
e 1 10
e 1 11
e 1 12
e 1 13
e 1 15
e 1 20
e 1 22
e 1 23
e 1 25
e 1 26
e 1 28
e 1 32
e 1 37
e 1 38
e 1 39
e 1 40
e 1 42
e 1 43
e 1 46
e 1 49
e 1 54
e 1 63
e 1 64
e 1 65
e 1 67
e 1 75
e 1 81
e 1 82
e 1 84
e 1 85
e 1 91
e 1 92
e 1 95
e 1 98
e 1 100
e 2 3
e 2 4
e 2 5
e 2 6
e 2 8
e 2 9
e 2 12
e 2 13
e 2 14
e 2 15
e 2 17
e 2 23
e 2 27
e 2 29
e 2 32
e 2 38
e 2 41
e 2 45
e 2 46
e 2 50
e 2 53
e 2 54
e 2 55
e 2 57
e 2 59
e 2 60
e 2 61
e 2 62
e 2 66
e 2 72
e 2 73
e 2 85
e 2 88
e 2 92
e 3 5
e 3 7
e 3 8
e 3 9
e 3 10
e 3 11
e 3 12
e 3 13
e 3 16
e 3 18
e 3 25
e 3 27
e 3 28
e 3 29
e 3 30
e 3 32
e 3 33
e 3 35
e 3 41
e 3 42
e 3 52
e 3 53
e 3 68
e 3 81
e 3 84
e 3 90
e 3 94
e 3 97
e 3 100
e 4 5
e 4 8
e 4 9
e 4 15
e 4 16
e 4 19
e 4 20
e 4 21
e 4 29
e 4 30
e 4 32
e 4 37
e 4 44
e 4 46
e 4 47
e 4 49
e 4 55
e 4 57
e 4 64
e 4 67
e 4 71
e 4 74
e 4 75
e 4 77
e 4 83
e 4 87
e 4 88
e 4 89
e 4 98
e 5 6
e 5 9
e 5 10
e 5 12
e 5 13
e 5 15
e 5 18
e 5 24
e 5 25
e 5 26
e 5 32
e 5 34
e 5 35
e 5 36
e 5 47
e 5 48
e 5 50
e 5 52
e 5 59
e 5 60
e 5 68
e 5 69
e 5 71
e 5 79
e 5 83
e 5 97
e 6 7
e 6 8
e 6 14
e 6 17
e 6 18
e 6 19
e 6 20
e 6 21
e 6 22
e 6 23
e 6 24
e 6 28
e 6 35
e 6 50
e 6 60
e 6 69
e 6 74
e 6 76
e 6 80
e 6 87
e 6 89
e 6 91
e 6 94
e 6 95
e 6 97
e 7 9
e 7 12
e 7 19
e 7 20
e 7 24
e 7 26
e 7 30
e 7 35
e 7 38
e 7 43
e 7 48
e 7 49
e 7 51
e 7 52
e 7 57
e 7 62
e 7 66
e 7 80
e 7 82
e 7 86
e 7 89
e 7 90
e 7 91
e 7 94
e 7 96
e 8 9
e 8 10
e 8 12
e 8 13
e 8 16
e 8 19
e 8 20
e 8 21
e 8 24
e 8 25
e 8 30
e 8 31
e 8 34
e 8 50
e 8 57
e 8 59
e 8 66
e 8 75
e 8 76
e 8 82
e 8 84
e 9 10
e 9 12
e 9 15
e 9 16
e 9 27
e 9 30
e 9 33
e 9 35
e 9 36
e 9 38
e 9 51
e 9 56
e 9 57
e 9 64
e 9 71
e 9 78
e 9 81
e 9 100
e 10 17
e 10 22
e 10 23
e 10 24
e 10 26
e 10 34
e 10 49
e 10 53
e 10 55
e 10 58
e 10 71
e 10 78
e 10 89
e 11 16
e 11 22
e 11 25
e 11 28
e 11 42
e 11 44
e 11 46
e 11 62
e 11 69
e 11 70
e 11 72
e 11 75
e 11 79
e 11 92
e 11 99
e 12 20
e 12 22
e 12 23
e 12 25
e 12 47
e 12 50
e 12 66
e 12 74
e 13 17
e 13 18
e 13 19
e 13 26
e 13 36
e 13 39
e 13 40
e 13 43
e 13 69
e 13 88
e 14 15
e 14 16
e 14 17
e 14 39
e 14 42
e 14 48
e 14 51
e 14 53
e 14 54
e 14 61
e 14 70
e 14 74
e 14 97
e 15 21
e 15 22
e 15 38
e 15 61
e 15 67
e 15 70
e 15 73
e 15 83
e 16 20
e 16 37
e 16 41
e 16 70
e 16 77
e 16 78
e 16 90
e 16 98
e 17 20
e 17 33
e 17 45
e 17 46
e 17 49
e 17 51
e 17 68
e 17 78
e 17 92
e 18 20
e 18 28
e 18 29
e 18 31
e 18 40
e 18 52
e 18 56
e 18 91
e 18 93
e 18 98
e 19 36
e 19 56
e 19 58
e 19 62
e 19 63
e 19 73
e 19 77
e 19 79
e 19 96
e 20 25
e 20 39
e 20 68
e 20 94
e 21 31
e 21 40
e 21 43
e 21 48
e 21 54
e 21 63
e 21 65
e 21 76
e 21 99
e 22 29
e 22 36
e 22 42
e 22 64
e 22 70
e 22 80
e 23 44
e 23 45
e 23 47
e 23 58
e 23 65
e 23 67
e 23 68
e 24 39
e 24 55
e 24 65
e 24 67
e 24 77
e 24 84
e 24 88
e 25 27
e 25 65
e 25 73
e 25 89
e 26 41
e 26 45
e 26 73
e 26 80
e 26 91
e 26 93
e 27 32
e 27 34
e 27 37
e 27 43
e 27 51
e 27 52
e 27 87
e 28 33
e 28 45
e 28 56
e 28 77
e 28 92
e 28 96
e 29 31
e 29 33
e 29 37
e 29 53
e 29 75
e 30 31
e 30 44
e 30 54
e 30 59
e 30 61
e 31 52
e 31 72
e 31 74
e 31 81
e 31 86
e 32 48
e 32 72
e 32 85
e 33 40
e 33 71
e 33 93
e 33 95
e 34 38
e 34 44
e 34 83
e 34 84
e 34 95
e 35 64
e 35 82
e 35 87
e 36 56
e 36 60
e 36 76
e 37 41
e 37 47
e 37 90
e 38 55
e 38 99
e 39 63
e 39 96
e 39 100
e 40 59
e 40 83
e 40 99
e 41 76
e 41 85
e 42 58
e 42 97
e 43 61
e 43 79
e 44 66
e 44 86
e 45 93
e 45 96
e 46 78
e 46 94
e 47 63
e 47 87
e 48 62
e 48 85
e 49 80
e 50 72
e 51 69
e 53 86
e 54 81
e 55 58
e 56 60
e 57 82
e 58 79
e 59 93
e 60 99
e 61 86
e 62 95
e 63 98
e 64 90
e 65 100
e 66 88
n 5 3
n 17 3
n 22 3
n 23 2
n 27 3
n 37 3
n 42 3
n 43 3
n 56 1
n 59 3
n 61 3
n 63 3
n 74 3
n 76 2
n 81 1
n 82 3
n 84 2
n 89 2
n 92 3
n 99 2
